33D32945 STP File, STP Format Version 1.0

SECTION Comments
Name "shell_n14_d2_s10"
Problem "Euclidean Steiner Tree Problem"
Remark "Generated with STPGenerator. 2 dimensions."
END

SECTION Graph
Nodes 14
END

SECTION Coordinates
DD 0 0.5102297206 0.8600381574
DD 1 0.0180024585 -0.9998379426
DD 2 0.7072831165 -0.7069304019
DD 3 0.7360904390 -0.6768831994
DD 4 -0.4930177462 -0.8700192538
DD 5 0.9867779229 0.1620781627
DD 6 -0.6956645692 -0.7183667637
DD 7 -0.9777233012 0.2098979426
DD 8 0.1409262936 0.9900200906
DD 9 -0.8434250499 0.5372468568
DD 10 -0.4462781855 -0.8948942849
DD 11 0.9939495041 -0.1098379869
DD 12 -0.3039908263 0.9526749590
DD 13 -0.2657475009 -0.9640426680
END
